%chk=Hexacyano-2_Water.chk
# opt freq wb97xd/6-311+g(d,p)
scrf=(smd,solvent=water)
geometry=connectivity
formcheck

HexaCyano-2_Water

-2 1
 N                  4.04174000   -0.99003600    0.00000100
 C                  0.21593400    0.77909800    0.00000000
 C                 -0.78265600   -0.20268100    0.00000000
 N                 -2.87872600   -3.00500500    0.00000000
 C                  0.56687300   -0.57660000    0.00000000
 C                 -2.11232500   -0.54674400    0.00000000
 N                 -3.97467200    1.23146300   -0.00000100
 C                  2.91244700   -1.22946600    0.00000100
 C                  1.52974700   -1.55603800    0.00000100
 C                  1.17962000   -2.93295900    0.00000100
 C                 -2.52104400   -1.90742700    0.00000000
 C                 -3.12964400    0.44500400   -0.00000100
 C                  1.95016200    2.48799600    0.00000000
 C                  0.58266300    2.10269700    0.00000000
 N                 -1.16333900    3.99529200   -0.00000100
 C                 -0.39151500    3.13685800    0.00000000
 N                  0.92098400   -4.05800300    0.00000100
 N                  3.05379000    2.82651500    0.00000000

